47
29
0 30 31 32 37 39 40 42 44 46
1 29 31 35 37 38 41
2 30 31 32 33 35 37 39 41 42 44
3 31 34 37 38 39 40 41 44
4 30 31 32 34 37 39 42
5 30 32 35 37 42 44
6 32 37 39 41 44
7 30 32 34 35 38 39 42 44
8 29 35 37 39 40 41 42
9 30 31 32 37 38 42 44 46
10 30 35 37 44
11 32 33 37 39 41 44 45 46
12 29 30 34 36 40 41 43 44
13 29 30 32 39 41 42 45
14 31 32 37 39 42 44 45 46
15 29 31 34 35 37 39 41 42
16 30 31 32 41 44
17 31 34 37 38 42
18 30 34 35 36 37 38
19 36 38 40 42 44
20 37 38 46
21 31 34 38 40 44
22 30 31 32 40 41 46
23 45
24 41 42 43 44
25 29 34 35
26 29 40 46
27 45
28
